results/x-10M/X-n162-k11.vrp_seed-8.out
14138	8943
