results/x-10M/X-n162-k11.vrp_seed-8.vrp.sol
Route #1: 155 92 125 93 132 87 4 101 151 146 39 137 108 158 91 136
Route #2: 23 24 49 6 13 71 37 131 57 32 16 5 120 81 74
Route #3: 127 17 149 89 14 1 55 60 21 9 27 117 97 77 161
Route #4: 143 153 110 128 124 134 148 109 2 82 118 30 157 112 40 103
Route #5: 53 86 130 99 35 36 94 100 66 56 123 43 142 102 116 52
Route #6: 80 111 154 140 31 106 88 96 129 95 114 62 67 20 78 54
Route #7: 25 47 98 83 104 63 113 70 12 64 18 19 22 79
Route #8: 150 90 145 68 58 38 73 11 48 26 28 152 45 50
Route #9: 72 135 159 147 121 85 160 84 122 107 133 138 126 139 15
Route #10: 59 156 115 141 119 144 105 10 29
Route #11: 8 76 41 61 46 69 65 42 51 3 33 75 44 7 34
Cost 14138.000000